experiment/data/hgs-res/Vrp-Set-A-n37/Vrp-Set-A-n37-hgs/1.hgs1.vrp
NAME : 1
COMMENT : CVRP Instance
TYPE : CVRP
DIMENSION : 37
EDGE_WEIGHT_TYPE : EUC_2D
CAPACITY : 100
NODE_COORD_SECTION
1	86.0	22.0
2	29.0	17.0
3	4.0	50.0
4	25.0	13.0
5	67.0	37.0
6	13.0	7.0
7	62.0	15.0
8	84.0	38.0
9	34.0	3.0
10	19.0	45.0
11	42.0	76.0
12	40.0	86.0
13	25.0	94.0
14	63.0	57.0
15	75.0	24.0
16	61.0	85.0
17	87.0	38.0
18	54.0	39.0
19	66.0	34.0
20	46.0	39.0
21	47.0	17.0
22	21.0	54.0
23	19.0	83.0
24	1.0	82.0
25	94.0	28.0
26	82.0	72.0
27	41.0	59.0
28	100.0	77.0
29	1.0	57.0
30	96.0	7.0
31	57.0	82.0
32	47.0	38.0
33	68.0	89.0
34	16.0	36.0
35	51.0	38.0
36	83.0	74.0
37	84.0	2.0
DEMAND_SECTION
1	0
2	1
3	23
4	23
5	5
6	7
7	18
8	12
9	20
10	19
11	19
12	16
13	2
14	26
15	13
16	19
17	17
18	14
19	8
20	10
21	5
22	19
23	12
24	9
25	18
26	4
27	20
28	8
29	3
30	18
31	26
32	21
33	21
34	8
35	19
36	66
37	21
DEPOT_SECTION
1
-1
EOF
