experiment/data/hgs-res/Vrp-Set-A-n37/Vrp-Set-A-n37-hgs/1.hgs1.tour
Route #1: 18 17 34 1 3 5 8 20
Route #2: 14 6 36 29 24
Route #3: 7 25 35 16
Route #4: 27 32 15 30 13
Route #5: 33 2 28 23 22 12 11 10
Route #6: 31 19 9 21 26 4
Cost 950.852
